Function: get_partitions took 1.430511474609375e-05 seconds
Function: map_flows_partitions took 2.6226043701171875e-06 seconds
Building model with:
2 devices, 1 partitions and 1 flows
Using license file /home/anup/gurobi.lic
Academic license - for non-commercial use only
Function: MIP.add_frac_mem_var took 0.00022125244140625 seconds
Function: MIP.add_coverage_constraints took 0.000171661376953125 seconds
Function: MIP.add_accuracy_constraints took 7.843971252441406e-05 seconds
Function: MIP.add_capacity_constraints took 0.000232696533203125 seconds
Changed value of parameter TimeLimit to 120.0
   Prev: inf  Min: 0.0  Max: inf  Default: inf
--------------------------------------------------
Starting model update
Model update took: 7.653236389160156e-05 s
--------------------------------------------------
Starting model optimize
Gurobi Optimizer version 9.0.0 build v9.0.0rc2 (linux64)
Optimize a model with 10 rows, 12 columns and 21 nonzeros
Model fingerprint: 0x958881e6
Model has 1 general constraint
Variable types: 12 continuous, 0 integer (0 binary)
Coefficient statistics:
  Matrix range     [2e-02, 1e+02]
  Objective range  [1e+00, 1e+00]
  Bounds range     [1e+00, 6e+02]
  RHS range        [1e+00, 7e+00]

---------------------------------------------------------------------------
Multi-objectives: starting optimization with 2 objectives ... 
---------------------------------------------------------------------------

Multi-objectives: applying initial presolve ...
---------------------------------------------------------------------------

Presolve removed 9 rows and 9 columns
Presolve time: 0.00s
Presolved: 1 rows and 3 columns
---------------------------------------------------------------------------

Multi-objectives: optimize objective 1 (ns) ...
---------------------------------------------------------------------------

Presolve removed 1 rows and 3 columns
Presolve time: 0.00s
Presolve: All rows and columns removed
Iteration    Objective       Primal Inf.    Dual Inf.      Time
       0    6.7567568e+00   0.000000e+00   0.000000e+00      0s

Solved in 0 iterations and 0.00 seconds
Optimal objective  6.756756757e+00
---------------------------------------------------------------------------

Multi-objectives: optimize objective 2 (res) ...
---------------------------------------------------------------------------

Presolve removed 2 rows and 3 columns
Presolve time: 0.00s
Presolve: All rows and columns removed
Iteration    Objective       Primal Inf.    Dual Inf.      Time
       0    2.8737793e+00   0.000000e+00   0.000000e+00      0s

Solved in 0 iterations and 0.00 seconds
Optimal objective  2.873779297e+00

---------------------------------------------------------------------------
Multi-objectives: solved in 0.00 seconds, solution count 1

Model optimize took: 0.0010900497436523438 seconds
--------------------------------------------------

Solution quality statistics for model Netmon :
  Maximum violation:
    Bound       : 0.00000000e+00
    Constraint  : 0.00000000e+00
    Integrality : 0.00000000e+00

Throughput: 148.0 Mpps, ns per packet: 6.756756756756757
Resources: 2.873779296875
Used Cores: 0, Total CPUS: 0, Switch Memory: 101.94140625

Sketch (0) (cm: eps0: 0.0003125, del0: 0.05, min_mem: 33.98046875)
Par: 1, Rows: 3
(0.000,1)    (1.000,0)    
Total frac: 1.000

Device (0) P4_1:
Rows total: 3.0
Mem total: 101.94140625
Throughput: 148.0

Device (1) P4_2:
Rows total: 0.0
Mem total: 0.0
Throughput: 148.0
--------------------------------------------------
Function: MIP.solve took 0.006300449371337891 seconds
Function: solve took 0.006534576416015625 seconds
